treewidth/data/WellsGraph.gr
p tw 32 80
1 27
1 4
1 8
1 14
1 21
2 27
2 31
2 10
2 15
2 19
13 27
13 32
13 6
13 17
13 20
24 27
24 30
24 7
24 12
24 23
27 25
28 29
28 5
28 11
28 18
28 26
29 3
29 7
29 15
29 20
30 3
30 10
30 11
30 21
31 3
31 8
31 17
31 18
32 3
32 5
32 14
32 23
3 25
4 6
4 12
4 19
4 26
5 9
5 12
5 21
6 9
6 15
6 18
7 9
7 17
7 19
8 9
8 11
8 23
9 25
10 14
10 20
10 26
11 16
11 19
12 16
12 20
14 16
14 18
15 16
15 23
16 25
17 21
17 26
18 22
19 22
20 22
21 22
22 25
23 26
