treewidth/data/WellsGraph.td
c width = 14, time = 1.582738
s td 11 15 32
b 1 1 6 9 10 12 16 17 19 27 28 29 30 31 32
b 2 1 6 9 10 12 16 17 19 23 27 28 29 30 31 32
b 3 2 6 10 15 16 19 23 27 29 31
b 4 1 4 6 10 12 17 19 23 26 28
b 5 7 9 12 17 19 23 24 27 29 30
b 6 1 8 9 11 16 19 23 28 30 31
b 7 1 6 9 10 12 16 17 19 22 27 28 29 30 31 32
b 8 3 9 16 22 25 27 29 30 31 32
b 9 1 5 9 12 17 21 22 28 30 32
b 10 6 10 12 13 17 20 22 27 29 32
b 11 1 6 10 14 16 18 22 28 31 32
2 3
2 4
2 5
2 6
1 2
7 8
7 9
7 10
7 11
1 7
